NAME : amtsp
TYPE : ATSP
DIMENSION : 4
EDGE_WEIGHT_TYPE : EXPLICIT
EDGE_WEIGHT_FORMAT : FULL_MATRIX
EDGE_WEIGHT_SECTION
100000 -100000 100000 100000 
100000 100000 -245 -188 
0 0 100000 -359 
0 0 -359 100000 
